144297
0,86,43,65,58,9,26,27,88,79,56,22,92,11,91,8,18,41,105,7,96,54,28,29,4,51,64,30,97,87,12,39,55,19,15,63,89,16,20,21,61,1,32,81,71,44,24,85,76,45,5,68,80,67,49,98,99,50,34,74,62,31,17,52,83,6,48,38,35,53,70,94,66,40,10,84,47,72,36,69,100,37,103,104,2,93,77,95,59,90,78,42,14,3,102,60,46,13,25,33,82,73,101,23,75,57,0